(declare-fun e () String)
(declare-fun c () String)
(declare-fun b () String)
(declare-fun d () String)
(declare-fun a () String)
(declare-fun h () String)
(assert (= (str.++ c "ha" a) (str.++ "dha" h d "a")))
(assert (= (str.++ a d "g" c "ea") (str.++ "g" e)))
(assert (= (str.++ h "aefb") (str.++ "e" b b)))

(check-sat)
